0 12 393 540 868 238 661 436 579 575 634 0 805 246 313 892 698 25 458 791 324 815 0 243 24 453 187 615 705 776 604 272 747 0 376 947 892 897 290 480 10 122 30 127 0 837 291 488 796 369 851 623 866 988 36 0 195 956 907 686 276 504 376 826 815 6 0 401 83 274 115 47 878 249 175 778 480 0 434 323 260 988 225 269 457 705 34 119 0 542 185 353 764 222 748 658 558 992 580 0